Set parameter TokenServer to value "hpc-licenses.hpcc.usc.edu"
Set parameter TimeLimit to value 3600
Gurobi Optimizer version 9.5.1 build v9.5.1rc2 (linux64)
Thread count: 20 physical cores, 20 logical processors, using up to 20 threads
Optimize a model with 6007 rows, 4529 columns and 24534 nonzeros
Model fingerprint: 0xf2f03193
Variable types: 4506 continuous, 23 integer (23 binary)
Coefficient statistics:
  Matrix range     [1e+00, 1e+00]
  Objective range  [2e-04, 1e+00]
  Bounds range     [1e+00, 1e+00]
  RHS range        [1e+00, 2e+02]
Found heuristic solution: objective 279.0627894
Presolve removed 1520 rows and 1515 columns
Presolve time: 0.08s
Presolved: 4487 rows, 3014 columns, 21975 nonzeros
Variable types: 2994 continuous, 20 integer (20 binary)

Root relaxation: objective 2.910067e+02, 2476 iterations, 0.12 seconds (0.11 work units)

    Nodes    |    Current Node    |     Objective Bounds      |     Work
 Expl Unexpl |  Obj  Depth IntInf | Incumbent    BestBd   Gap | It/Node Time

     0     0  291.00669    0    2  279.06279  291.00669  4.28%     -    0s
     0     0  290.81964    0    2  279.06279  290.81964  4.21%     -    0s
H    0     0                     279.4664336  290.81964  4.06%     -    0s
     0     0  290.17796    0    2  279.46643  290.17796  3.83%     -    0s
     0     0  290.13200    0    2  279.46643  290.13200  3.82%     -    0s
     0     0  290.05605    0    2  279.46643  290.05605  3.79%     -    0s
     0     0  290.01594    0    2  279.46643  290.01594  3.77%     -    0s
     0     0  289.96701    0    2  279.46643  289.96701  3.76%     -    0s
     0     0  289.94029    0    2  279.46643  289.94029  3.75%     -    0s
     0     0  289.88221    0    2  279.46643  289.88221  3.73%     -    0s
     0     0  289.80207    0    2  279.46643  289.80207  3.70%     -    0s
     0     0  289.73907    0    2  279.46643  289.73907  3.68%     -    0s
     0     0  289.70152    0    2  279.46643  289.70152  3.66%     -    0s
H    0     0                     289.2596165  289.28640  0.01%     -    0s
     0     0  289.25962    0    3  289.25962  289.25962  0.00%     -    0s

Cutting planes:
  Gomory: 6
  MIR: 217
  Flow cover: 8
  RLT: 9

Explored 1 nodes (3710 simplex iterations) in 0.78 seconds (0.53 work units)
Thread count was 20 (of 20 available processors)

Solution count 3: 289.26 279.466 279.063 

Optimal solution found (tolerance 1.00e-04)
Best objective 2.892596164832e+02, best bound 2.892596164832e+02, gap 0.0000%



#########node  1
V1.6
#########node  2
0.0,1.0
#########node  3
1.0,0.0


Total Solving Time 1.189481496810913
obj value 289.2596164832021
Policy Regret train (Sum) 1.2397053270686504
Best Treatment Found train (%) 86.8
treatment classification acc train (%) 83.39999999999999
Policy Regret test (Sum) 26.7565594125534
Best Treatment Found test (%) 84.76
treatment classification acc test (%) 81.99
